120 150

43
59
54
52
48
44
42
54
54
50
47
58
44
53
48
47
58
49
55
46
45
54
51
45
50
60
40
48
48
54
47
43
60
47
47
56
60
47
46
60
44
57
48
53
50
54
58
60
48
47
45
57
44
49
50
44
56
45
48
57
43
49
53
48
48
60
58
49
44
51
55
43
48
55
58
45
54
48
48
47
50
48
52
47
49
46
60
60
60
46
55
44
57
40
53
48
58
58
50
44
52
43
55
48
58
59
49
44
42
42
42
42
56
46
48
45
52
60
60
53